c description: Random 5-CNF over 15 variables and 15 clauses
c generator: CNFgen (0.9.0)
c copyright: (C) 2012-2020 Massimo Lauria <massimo.lauria@uniroma1.it>
c url: https://massimolauria.net/cnfgen
c
p cnf 15 15
-3 6 -13 -14 -15 0
-3 4 -8 11 12 0
3 -5 -7 -12 -13 0
-1 3 8 10 -14 0
1 -4 6 8 11 0
-1 6 9 11 13 0
3 4 9 -10 12 0
-5 -7 -9 12 -13 0
-1 4 9 -14 -15 0
-1 3 5 8 9 0
-1 -5 9 14 15 0
-1 9 11 -12 14 0
1 4 -5 -10 14 0
3 -5 -8 9 -12 0
-1 -3 -6 -7 8 0